NAME: I10237-n29-k3
COMMENT : (Fake et al, No of trucks: 3, Optimal value: )
TYPE : CVRP
DIMENSION : 29
EDGE_WEIGHT_TYPE : EUC_2D
CAPACITY : 16
NODE_COORD_SECTION
1 390 280
2 281 843
3 174 533
4 930 63
5 603 594
6 979 807
7 144 996
8 351 175
9 351 995
10 367 440
11 928 672
12 107 694
13 551 628
14 259 973
15 929 398
16 59 969
17 867 234
18 375 807
19 733 52
20 977 5
21 586 759
22 440 642
23 679 31
24 368 997
25 432 334
26 484 618
27 645 350
28 150 441
29 874 253
DEMAND_SECTION
1 0
2 1
3 2
4 1
5 1
6 1
7 1
8 2
9 1
10 2
11 1
12 2
13 1
14 1
15 2
16 2
17 1
18 2
19 2
20 1
21 1
22 1
23 1
24 1
25 2
26 1
27 2
28 2
29 1
DEPOT_SECTION
 1
 -1
 EOF 